150 7434
1 98 34 87 76 73 48 10 94 88 121 79 59 16 111 92 90 25 20 47 110 81 29 86 108 102 114 99 19 2 37 9 6 28 42 120 139 40 53 118 24 12 51 43 67 23 38 32 131 77 122 80 14 72 31 123 74 13 106 91 119 68 128 45 71 115 150 21 78 15 133 105 56 83 141 58 55 50 135 70 137 132 65 85 142 18 75 26 146 52 35 96 8 89 84 7 30 63 113 3 62 149 125 22 104 4 44 64 112 136 145 147 49 144 129 27 117 140 17 66 60 130 148 11 61 36 69 127 39 57 41 101 116 109 134 54 138 46 33 126 93 124 97 143 100 5 107 95 82 103 
